experiment/data/hgs-res/Vrp-Set-A-n64/Vrp-Set-A-n64-hgs/0.hgs1.vrp
NAME : 0
COMMENT : CVRP Instance
TYPE : CVRP
DIMENSION : 64
EDGE_WEIGHT_TYPE : EUC_2D
CAPACITY : 100
NODE_COORD_SECTION
1	97.0	33.0
2	57.0	81.0
3	1.0	33.0
4	55.0	57.0
5	29.0	37.0
6	21.0	39.0
7	93.0	37.0
8	5.0	91.0
9	25.0	11.0
10	47.0	37.0
11	87.0	25.0
12	67.0	65.0
13	71.0	89.0
14	67.0	15.0
15	45.0	79.0
16	71.0	57.0
17	29.0	1.0
18	59.0	79.0
19	93.0	83.0
20	47.0	41.0
21	51.0	41.0
22	23.0	93.0
23	87.0	95.0
24	39.0	45.0
25	45.0	7.0
26	85.0	51.0
27	35.0	93.0
28	47.0	79.0
29	59.0	91.0
30	83.0	51.0
31	49.0	65.0
32	21.0	55.0
33	51.0	21.0
34	69.0	43.0
35	37.0	41.0
36	37.0	95.0
37	5.0	71.0
38	37.0	47.0
39	83.0	73.0
40	17.0	71.0
41	5.0	71.0
42	81.0	17.0
43	59.0	33.0
44	63.0	87.0
45	21.0	77.0
46	71.0	51.0
47	21.0	17.0
48	9.0	7.0
49	65.0	43.0
50	25.0	63.0
51	13.0	57.0
52	47.0	43.0
53	77.0	9.0
54	57.0	55.0
55	21.0	33.0
56	27.0	59.0
57	83.0	9.0
58	63.0	69.0
59	9.0	35.0
60	25.0	55.0
61	33.0	3.0
62	53.0	11.0
63	51.0	49.0
64	9.0	23.0
DEMAND_SECTION
1	0
2	10
3	15
4	23
5	23
6	24
7	17
8	1
9	4
10	2
11	5
12	18
13	9
14	8
15	23
16	13
17	4
18	18
19	16
20	26
21	16
22	4
23	23
24	8
25	26
26	16
27	5
28	2
29	21
30	23
31	8
32	5
33	8
34	26
35	12
36	8
37	3
38	8
39	19
40	16
41	2
42	3
43	17
44	7
45	5
46	8
47	4
48	12
49	19
50	19
51	26
52	24
53	5
54	8
55	22
56	9
57	18
58	19
59	15
60	5
61	11
62	12
63	54
64	8
DEPOT_SECTION
1
-1
EOF
