experiment/data/hgs-res/Vrp-Set-A-n64/Vrp-Set-A-n64-hgs/0.hgs1.tour
Route #1: 9 54 58 2 63 47 46 8 16 60 41
Route #2: 10 56 52 13 61 24 32 42
Route #3: 15 11 57 12 22 18
Route #4: 25 29 6
Route #5: 38 43 28 14 27 1 17
Route #6: 45 30 35 26 21 7 36 40 39 44 49 55 34
Route #7: 48 62 33
Route #8: 53 3 51 19 20
Route #9: 4 5 50 31 59 37 23
Cost 1400.63
